37369.74,34.95,38.49
35443.99,36.85,40.58
38857.09,33.62,37.02
34632.66,37.72,41.54
34793.77,37.54,41.34
35857.25,36.43,40.12
35584.14,36.71,40.42
38824.44,33.64,37.05
35840.85,36.45,40.14
41146.3,31.75,34.96
41023.68,31.84,35.07
38769.84,33.69,37.1
37434.88,34.89,38.43
38530.49,33.9,37.33
35708.61,36.58,40.28
39795.77,32.82,36.15
40228.98,32.47,35.76
36717.84,35.57,39.18
36900.2,35.4,38.98
35233.03,37.07,40.83
